c WARNING: for repeatability, setting FPU to use double precision
d VARIABLES            54718        
d CONSTRAINTS          236427       
c ============================[ Problem Statistics ]=============================
c |                                                                             |
c |  Number of variables:         54718                                         |
c |  Number of clauses:          236427                                         |
c |  Parse time:                   0.03 s                                       |
c |                                                                             |
c ============================[ Search Statistics ]==============================
c | Conflicts |          ORIGINAL         |          LEARNT          | Progress |
c |           |    Vars  Clauses Literals |    Limit  Clauses Lit/Cl |          |
c ===============================================================================
c |       100 |   44546   207723   505290 |    76165      100     17 | 18.590 % |
c |       250 |   44546   207723   505290 |    83781      250     45 | 18.590 % |
c |       475 |   44546   207723   505290 |    92159      475     61 | 18.590 % |
c |       812 |   44546   207723   505290 |   101375      812     49 | 18.590 % |
c |      1318 |   44546   207723   505290 |   111513     1318     64 | 18.590 % |
c |      2077 |   44546   207723   505290 |   122664     2077     62 | 18.590 % |
c |      3216 |   44546   207723   505290 |   134931     3216     70 | 18.590 % |
c |      4924 |   44546   207723   505290 |   148424     4924     83 | 18.590 % |
c |      7486 |   44546   207723   505290 |   163266     7486     92 | 18.590 % |
c |     11330 |   44546   207723   505290 |   179593    11330     94 | 18.590 % |
c |     17096 |   44546   207723   505290 |   197552    17096     93 | 18.590 % |
c ===============================================================================
c restarts              : 84
c conflicts             : 23228          (7313 /sec)
c decisions             : 83519          (0.00 % random) (26295 /sec)
c propagations          : 19033218       (5992453 /sec)
c conflict literals     : 2137858        (30.12 % deleted)
d RESTARTS             84
d FAILURES             23228        
d NODES                83519        
d BACKTRACKS           83519        
d PROPAGATIONS         19033218     
d NOGOODSIZE           92.04 
d MEMORY               36.00 
d TIME                 3.1762 

s UNSATISFIABLE
